%SETS
JOBS     = 1..50;
MACHINES = 1..5;
SPEED    = 5;

time        = array3d(JOBS,MACHINES,1..SPEED,[20, 6, 4, 4, 3, 17, 6, 4, 3, 3, 1, 1, 1, 1, 1, 8, 2, 1, 1, 1, 17, 6, 4, 3, 3, 29, 10, 7, 5, 5, 42, 14, 10, 8, 7, 12, 4, 3, 2, 2, 1, 1, 1, 1, 1, 8, 3, 2, 1, 1, 62, 21, 15, 12, 11, 6, 2, 1, 1, 1, 15, 5, 3, 3, 2, 69, 23, 16, 14, 12, 1, 1, 1, 1, 1, 23, 8, 5, 4, 4, 77, 26, 19, 15, 13, 6, 2, 1, 1, 1, 20, 7, 5, 4, 3, 62, 21, 15, 12, 11, 3, 1, 1, 1, 1, 19, 6, 4, 3, 3, 35, 12, 8, 7, 6, 28, 9, 7, 5, 5, 16, 5, 3, 3, 2, 5, 2, 1, 1, 1, 17, 6, 4, 3, 3, 12, 4, 2, 2, 2, 16, 5, 4, 3, 3, 11, 4, 2, 2, 2, 47, 16, 11, 9, 8, 37, 13, 9, 7, 6, 9, 3, 2, 1, 1, 21, 7, 5, 4, 3, 8, 2, 2, 1, 1, 15, 5, 3, 3, 2, 11, 3, 2, 2, 2, 27, 9, 6, 5, 4, 11, 4, 2, 2, 2, 15, 5, 3, 3, 2, 32, 11, 8, 6, 5, 13, 4, 3, 2, 2, 61, 21, 15, 12, 11, 5, 1, 1, 1, 1, 34, 12, 8, 7, 6, 14, 4, 3, 2, 2, 14, 4, 3, 2, 2, 26, 8, 6, 5, 4, 19, 6, 4, 3, 3, 13, 4, 3, 2, 2, 1, 1, 1, 1, 1, 2, 1, 1, 1, 1, 31, 11, 7, 6, 5, 19, 6, 4, 3, 3, 30, 10, 7, 6, 5, 80, 27, 19, 16, 14, 29, 10, 7, 6, 5, 1, 1, 1, 1, 1, 9, 3, 2, 1, 1, 23, 8, 5, 4, 4, 6, 2, 1, 1, 1, 86, 29, 21, 17, 15, 75, 25, 18, 15, 13, 48, 16, 11, 9, 8, 16, 5, 4, 3, 2, 47, 16, 11, 9, 8, 3, 1, 1, 1, 1, 9, 3, 2, 1, 1, 16, 5, 3, 3, 2, 35, 12, 8, 7, 6, 17, 5, 4, 3, 3, 3, 1, 1, 1, 1, 10, 3, 2, 2, 1, 10, 3, 2, 2, 1, 9, 3, 2, 1, 1, 4, 1, 1, 1, 1, 13, 4, 3, 2, 2, 15, 5, 3, 3, 2, 38, 13, 9, 7, 6, 41, 14, 10, 8, 7, 19, 6, 4, 3, 3, 15, 5, 3, 3, 2, 38, 13, 9, 7, 7, 56, 19, 13, 11, 10, 29, 10, 7, 5, 5, 41, 14, 10, 8, 7, 72, 25, 17, 14, 13, 1, 1, 1, 1, 1, 53, 18, 13, 10, 9, 8, 2, 2, 1, 1, 16, 5, 4, 3, 3, 41, 14, 10, 8, 7, 32, 11, 8, 6, 5, 4, 1, 1, 1, 1, 27, 9, 6, 5, 5, 1, 1, 1, 1, 1, 11, 3, 2, 2, 2, 43, 14, 10, 8, 7, 14, 4, 3, 2, 2, 23, 8, 5, 4, 4, 33, 11, 8, 6, 6, 44, 15, 10, 9, 8, 36, 12, 9, 7, 6, 1, 1, 1, 1, 1, 14, 4, 3, 2, 2, 16, 5, 3, 3, 2, 1, 1, 1, 1, 1, 20, 6, 4, 4, 3, 24, 8, 5, 4, 4, 45, 15, 11, 9, 8, 73, 25, 18, 14, 13, 3, 1, 1, 1, 1, 6, 2, 1, 1, 1, 27, 9, 6, 5, 5, 3, 1, 1, 1, 1, 6, 2, 1, 1, 1, 22, 7, 5, 4, 3, 4, 1, 1, 1, 1, 39, 13, 9, 8, 7, 50, 17, 12, 10, 9, 1, 1, 1, 1, 1, 19, 6, 4, 4, 3, 41, 14, 10, 8, 7, 95, 33, 23, 19, 17, 8, 2, 2, 1, 1, 4, 1, 1, 1, 1, 54, 18, 13, 11, 9, 62, 21, 15, 12, 11, 5, 1, 1, 1, 1, 15, 5, 3, 3, 2, 32, 11, 8, 6, 5, 48, 16, 11, 9, 8, 4, 1, 1, 1, 1, 28, 9, 6, 5, 5, 42, 14, 10, 8, 7, 20, 7, 5, 4, 3, 4, 1, 1, 1, 1, 1, 1, 1, 1, 1, 8, 2, 2, 1, 1, 42, 14, 10, 8, 7, 1, 1, 1, 1, 1, 1, 1, 1, 1, 1, 11, 4, 2, 2, 2, 1, 1, 1, 1, 1, 4, 1, 1, 1, 1, 1, 1, 1, 1, 1, 19, 6, 4, 3, 3, 30, 10, 7, 6, 5, 14, 4, 3, 2, 2, 3, 1, 1, 1, 1, 10, 3, 2, 2, 1, 23, 7, 5, 4, 4, 73, 25, 17, 14, 13, 126, 43, 31, 25, 22, 7, 2, 1, 1, 1, 1, 1, 1, 1, 1, 45, 15, 11, 9, 8, 67, 23, 16, 13, 12, 15, 5, 3, 3, 2, 38, 13, 9, 7, 6, 52, 17, 12, 10, 9, 24, 8, 5, 4, 4, 53, 18, 13, 10, 9, 1, 1, 1, 1, 1, 8, 2, 2, 1, 1, 8, 2, 2, 1, 1, 3, 1, 1, 1, 1, 62, 21, 15, 12, 11, 1, 1, 1, 1, 1, 28, 9, 7, 5, 5, 1, 1, 1, 1, 1, 11, 3, 2, 2, 2, 14, 4, 3, 2, 2, 5, 1, 1, 1, 1, 19, 6, 4, 3, 3, 19, 6, 4, 4, 3, 9, 3, 2, 2, 1, 34, 11, 8, 7, 6, 4, 1, 1, 1, 1, 5, 1, 1, 1, 1, 11, 3, 2, 2, 2, 12, 4, 3, 2, 2, 5, 2, 1, 1, 1, 64, 22, 15, 13, 11, 45, 15, 11, 9, 8, 2, 1, 1, 1, 1, 11, 4, 2, 2, 2, 6, 2, 1, 1, 1, 15, 5, 3, 3, 2, 8, 2, 2, 1, 1, 18, 6, 4, 3, 3, 66, 22, 16, 13, 11, 12, 4, 3, 2, 2, 27, 9, 6, 5, 4, 23, 8, 5, 4, 4, 36, 12, 8, 7, 6, 1, 1, 1, 1, 1, 35, 12, 8, 7, 6, 75, 26, 18, 15, 13, 23, 8, 5, 4, 4, 8, 3, 2, 1, 1, 28, 9, 7, 5, 5, 32, 11, 7, 6, 5, 27, 9, 6, 5, 4, 4, 1, 1, 1, 1, 93, 32, 23, 19, 16, 80, 27, 19, 16, 14, 14, 4, 3, 2, 2, 23, 8, 5, 4, 4, 1, 1, 1, 1, 1, 115, 40, 28, 23, 20, 44, 15, 10, 8, 7, 26, 9, 6, 5, 4, 37, 12, 9, 7, 6, 5, 1, 1, 1, 1, 9, 3, 2, 1, 1, 7, 2, 1, 1, 1, 23, 8, 5, 4, 4, 2, 1, 1, 1, 1, 58, 20, 14, 11, 10, 16, 5, 3, 3, 2, 15, 5, 3, 3, 2, 2, 1, 1, 1, 1, 29, 10, 7, 6, 5, 43, 15, 10, 8, 7, 25, 8, 6, 5, 4, 7, 2, 1, 1, 1, 39, 13, 9, 8, 7, 4, 1, 1, 1, 1, 45, 15, 11, 9, 8, 22, 7, 5, 4, 4, 8, 3, 2, 1, 1, 18, 6, 4, 3, 3, 25, 8, 6, 5, 4, 7, 2, 1, 1, 1, 48, 16, 11, 9, 8, 14, 4, 3, 2, 2, 57, 19, 14, 11, 10, 46, 16, 11, 9, 8, 2, 1, 1, 1, 1, 26, 9, 6, 5, 4, 9, 3, 2, 1, 1, 36, 12, 8, 7, 6, 20, 6, 4, 4, 3, 15, 5, 3, 3, 2, 58, 20, 14, 11, 10, 1, 1, 1, 1, 1, 21, 7, 5, 4, 3, 10, 3, 2, 2, 1, 1, 1, 1, 1, 1]);
energy      = array3d(JOBS,MACHINES,1..SPEED,[81, 94, 96, 96, 97, 84, 94, 96, 97, 97, 99, 99, 99, 99, 99, 92, 98, 99, 99, 99, 84, 94, 96, 97, 97, 74, 90, 93, 95, 95, 65, 86, 90, 92, 93, 88, 96, 97, 98, 98, 99, 99, 99, 99, 99, 92, 97, 98, 99, 99, 53, 81, 86, 88, 89, 94, 98, 99, 99, 99, 86, 95, 97, 97, 98, 50, 79, 85, 86, 88, 99, 99, 99, 99, 99, 79, 92, 95, 96, 96, 46, 77, 82, 86, 87, 94, 98, 99, 99, 99, 81, 93, 95, 96, 97, 53, 81, 86, 88, 89, 97, 99, 99, 99, 99, 82, 94, 96, 97, 97, 70, 88, 92, 93, 94, 75, 91, 93, 95, 95, 85, 95, 97, 97, 98, 95, 98, 99, 99, 99, 84, 94, 96, 97, 97, 88, 96, 98, 98, 98, 85, 95, 96, 97, 97, 89, 96, 98, 98, 98, 62, 85, 89, 91, 92, 69, 87, 91, 93, 94, 91, 97, 98, 99, 99, 81, 93, 95, 96, 97, 92, 98, 98, 99, 99, 86, 95, 97, 97, 98, 89, 97, 98, 98, 98, 76, 91, 94, 95, 96, 89, 96, 98, 98, 98, 86, 95, 97, 97, 98, 72, 89, 92, 94, 95, 87, 96, 97, 98, 98, 54, 81, 86, 88, 89, 95, 99, 99, 99, 99, 71, 88, 92, 93, 94, 86, 96, 97, 98, 98, 86, 96, 97, 98, 98, 77, 92, 94, 95, 96, 82, 94, 96, 97, 97, 87, 96, 97, 98, 98, 99, 99, 99, 99, 99, 98, 99, 99, 99, 99, 73, 89, 93, 94, 95, 82, 94, 96, 97, 97, 74, 90, 93, 94, 95, 44, 76, 82, 85, 86, 74, 90, 93, 94, 95, 99, 99, 99, 99, 99, 91, 97, 98, 99, 99, 79, 92, 95, 96, 96, 94, 98, 99, 99, 99, 42, 74, 81, 84, 86, 47, 77, 83, 86, 87, 61, 85, 89, 91, 92, 85, 95, 96, 97, 98, 62, 85, 89, 91, 92, 97, 99, 99, 99, 99, 91, 97, 98, 99, 99, 85, 95, 97, 97, 98, 70, 88, 92, 93, 94, 84, 95, 96, 97, 97, 97, 99, 99, 99, 99, 90, 97, 98, 98, 99, 90, 97, 98, 98, 99, 91, 97, 98, 99, 99, 96, 99, 99, 99, 99, 87, 96, 97, 98, 98, 86, 95, 97, 97, 98, 68, 87, 91, 93, 94, 66, 86, 90, 92, 93, 82, 94, 96, 97, 97, 86, 95, 97, 97, 98, 68, 87, 91, 93, 93, 57, 82, 87, 89, 90, 74, 90, 93, 95, 95, 66, 86, 90, 92, 93, 48, 77, 84, 86, 87, 99, 99, 99, 99, 99, 58, 83, 87, 90, 91, 92, 98, 98, 99, 99, 85, 95, 96, 97, 97, 66, 86, 90, 92, 93, 72, 89, 92, 94, 95, 96, 99, 99, 99, 99, 76, 91, 94, 95, 95, 99, 99, 99, 99, 99, 89, 97, 98, 98, 98, 65, 86, 90, 92, 93, 86, 96, 97, 98, 98, 79, 92, 95, 96, 96, 71, 89, 92, 94, 94, 64, 86, 90, 91, 92, 69, 88, 91, 93, 94, 99, 99, 99, 99, 99, 86, 96, 97, 98, 98, 85, 95, 97, 97, 98, 99, 99, 99, 99, 99, 81, 94, 96, 96, 97, 78, 92, 95, 96, 96, 63, 86, 89, 91, 92, 48, 77, 83, 86, 87, 97, 99, 99, 99, 99, 94, 98, 99, 99, 99, 76, 91, 94, 95, 95, 97, 99, 99, 99, 99, 94, 98, 99, 99, 99, 80, 93, 95, 96, 97, 96, 99, 99, 99, 99, 67, 87, 91, 92, 93, 60, 84, 88, 90, 91, 99, 99, 99, 99, 99, 82, 94, 96, 96, 97, 66, 86, 90, 92, 93, 38, 71, 79, 82, 84, 92, 98, 98, 99, 99, 96, 99, 99, 99, 99, 58, 83, 87, 89, 91, 53, 81, 86, 88, 89, 95, 99, 99, 99, 99, 86, 95, 97, 97, 98, 72, 89, 92, 94, 95, 61, 85, 89, 91, 92, 96, 99, 99, 99, 99, 75, 91, 94, 95, 95, 65, 86, 90, 92, 93, 81, 93, 95, 96, 97, 96, 99, 99, 99, 99, 99, 99, 99, 99, 99, 92, 98, 98, 99, 99, 65, 86, 90, 92, 93, 99, 99, 99, 99, 99, 99, 99, 99, 99, 99, 89, 96, 98, 98, 98, 99, 99, 99, 99, 99, 96, 99, 99, 99, 99, 99, 99, 99, 99, 99, 82, 94, 96, 97, 97, 74, 90, 93, 94, 95, 86, 96, 97, 98, 98, 97, 99, 99, 99, 99, 90, 97, 98, 98, 99, 79, 93, 95, 96, 96, 48, 77, 84, 86, 87, 28, 65, 73, 77, 80, 93, 98, 99, 99, 99, 99, 99, 99, 99, 99, 63, 86, 89, 91, 92, 51, 79, 85, 87, 88, 86, 95, 97, 97, 98, 68, 87, 91, 93, 94, 59, 84, 88, 90, 91, 78, 92, 95, 96, 96, 58, 83, 87, 90, 91, 99, 99, 99, 99, 99, 92, 98, 98, 99, 99, 92, 98, 98, 99, 99, 97, 99, 99, 99, 99, 53, 81, 86, 88, 89, 99, 99, 99, 99, 99, 75, 91, 93, 95, 95, 99, 99, 99, 99, 99, 89, 97, 98, 98, 98, 86, 96, 97, 98, 98, 95, 99, 99, 99, 99, 82, 94, 96, 97, 97, 82, 94, 96, 96, 97, 91, 97, 98, 98, 99, 71, 89, 92, 93, 94, 96, 99, 99, 99, 99, 95, 99, 99, 99, 99, 89, 97, 98, 98, 98, 88, 96, 97, 98, 98, 95, 98, 99, 99, 99, 52, 80, 86, 87, 89, 63, 86, 89, 91, 92, 98, 99, 99, 99, 99, 89, 96, 98, 98, 98, 94, 98, 99, 99, 99, 86, 95, 97, 97, 98, 92, 98, 98, 99, 99, 83, 94, 96, 97, 97, 51, 80, 85, 87, 89, 88, 96, 97, 98, 98, 76, 91, 94, 95, 96, 79, 92, 95, 96, 96, 69, 88, 92, 93, 94, 99, 99, 99, 99, 99, 70, 88, 92, 93, 94, 47, 77, 83, 86, 87, 79, 92, 95, 96, 96, 92, 97, 98, 99, 99, 75, 91, 93, 95, 95, 72, 89, 93, 94, 95, 76, 91, 94, 95, 96, 96, 99, 99, 99, 99, 39, 72, 79, 82, 85, 44, 76, 82, 85, 86, 86, 96, 97, 98, 98, 79, 92, 95, 96, 96, 99, 99, 99, 99, 99, 31, 67, 75, 79, 81, 64, 86, 90, 92, 93, 77, 91, 94, 95, 96, 69, 88, 91, 93, 94, 95, 99, 99, 99, 99, 91, 97, 98, 99, 99, 93, 98, 99, 99, 99, 79, 92, 95, 96, 96, 98, 99, 99, 99, 99, 55, 81, 86, 89, 90, 85, 95, 97, 97, 98, 86, 95, 97, 97, 98, 98, 99, 99, 99, 99, 74, 90, 93, 94, 95, 65, 86, 90, 92, 93, 77, 92, 94, 95, 96, 93, 98, 99, 99, 99, 67, 87, 91, 92, 93, 96, 99, 99, 99, 99, 63, 86, 89, 91, 92, 80, 93, 95, 96, 96, 92, 97, 98, 99, 99, 83, 94, 96, 97, 97, 77, 92, 94, 95, 96, 93, 98, 99, 99, 99, 61, 85, 89, 91, 92, 86, 96, 97, 98, 98, 56, 82, 86, 89, 90, 63, 85, 89, 91, 92, 98, 99, 99, 99, 99, 77, 91, 94, 95, 96, 91, 97, 98, 99, 99, 69, 88, 92, 93, 94, 81, 94, 96, 96, 97, 86, 95, 97, 97, 98, 55, 81, 86, 89, 90, 99, 99, 99, 99, 99, 81, 93, 95, 96, 97, 90, 97, 98, 98, 99, 99, 99, 99, 99, 99]);
precedence  = array2d(JOBS,MACHINES,[3, 1, 4, 0, 2, 0, 3, 1, 2, 4, 1, 3, 2, 0, 4, 4, 1, 2, 0, 3, 1, 4, 3, 2, 0, 3, 0, 2, 4, 1, 0, 1, 2, 3, 4, 3, 2, 1, 4, 0, 0, 3, 2, 4, 1, 2, 1, 4, 3, 0, 0, 3, 1, 4, 2, 3, 4, 0, 2, 1, 1, 4, 3, 2, 0, 1, 0, 3, 4, 2, 0, 1, 4, 3, 2, 3, 2, 0, 1, 4, 4, 1, 2, 3, 0, 0, 2, 3, 4, 1, 0, 3, 4, 2, 1, 4, 1, 2, 3, 0, 4, 3, 2, 1, 0, 3, 1, 4, 2, 0, 2, 0, 4, 3, 1, 2, 3, 4, 1, 0, 2, 3, 0, 4, 1, 4, 1, 3, 0, 2, 1, 2, 3, 0, 4, 1, 2, 4, 0, 3, 2, 1, 0, 4, 3, 0, 2, 4, 3, 1, 4, 2, 1, 0, 3, 3, 1, 0, 4, 2, 3, 1, 4, 0, 2, 2, 1, 4, 0, 3, 4, 2, 3, 0, 1, 1, 4, 3, 2, 0, 4, 3, 0, 1, 2, 1, 3, 0, 4, 2, 3, 4, 2, 0, 1, 1, 4, 3, 0, 2, 3, 1, 4, 0, 2, 2, 0, 3, 4, 1, 3, 2, 0, 1, 4, 0, 4, 1, 3, 2, 4, 2, 1, 0, 3, 3, 0, 4, 2, 1, 1, 0, 4, 3, 2, 2, 3, 4, 0, 1, 0, 1, 2, 4, 3, 3, 2, 0, 4, 1]);
releaseDate = array2d(JOBS,MACHINES,[120, 101, 124, 100, 114, 40, 63, 58, 61, 74, 109, 135, 129, 90, 136, 53, 5, 35, 0, 37, 103, 121, 111, 104, 100, 10, 0, 8, 11, 4, 100, 116, 131, 133, 139, 38, 34, 23, 41, 20, 60, 104, 78, 108, 68, 37, 34, 48, 41, 30, 90, 119, 92, 120, 100, 65, 84, 50, 58, 51, 57, 120, 73, 58, 40, 61, 60, 88, 90, 75, 90, 94, 102, 99, 95, 106, 103, 90, 94, 107, 141, 107, 117, 127, 90, 40, 54, 86, 89, 52, 80, 95, 108, 93, 86, 47, 25, 27, 44, 20, 70, 55, 45, 44, 40, 82, 76, 85, 77, 60, 52, 50, 84, 76, 51, 58, 59, 64, 43, 30, 62, 63, 50, 68, 60, 72, 21, 41, 20, 34, 66, 74, 94, 60, 95, 42, 49, 62, 40, 52, 36, 35, 30, 39, 37, 20, 22, 30, 27, 21, 155, 143, 119, 50, 154, 146, 109, 90, 148, 120, 80, 72, 93, 70, 78, 52, 51, 62, 50, 54, 94, 88, 91, 80, 81, 101, 118, 108, 107, 100, 82, 79, 50, 51, 66, 21, 24, 20, 27, 22, 26, 30, 22, 0, 16, 113, 140, 127, 90, 121, 47, 38, 50, 30, 45, 42, 20, 80, 87, 41, 53, 40, 20, 30, 91, 100, 125, 102, 124, 108, 75, 54, 52, 40, 57, 43, 30, 49, 42, 31, 44, 40, 56, 50, 49, 93, 104, 113, 80, 92, 70, 80, 83, 97, 94, 119, 118, 100, 144, 117]);
dueDate     = array2d(JOBS,MACHINES,[124, 114, 125, 101, 120, 58, 74, 61, 63, 77, 129, 136, 135, 109, 137, 59, 35, 37, 5, 53, 104, 127, 121, 111, 103, 11, 4, 10, 18, 8, 116, 131, 133, 139, 141, 41, 38, 34, 43, 23, 68, 108, 104, 109, 78, 41, 37, 57, 48, 34, 92, 120, 100, 127, 119, 84, 92, 51, 65, 58, 58, 170, 120, 73, 57, 75, 61, 90, 94, 88, 94, 95, 104, 102, 99, 107, 106, 94, 103, 117, 146, 117, 127, 141, 107, 52, 86, 89, 119, 54, 86, 108, 118, 95, 93, 48, 27, 44, 47, 25, 78, 70, 55, 45, 44, 85, 77, 89, 82, 76, 76, 51, 85, 84, 52, 59, 64, 65, 58, 43, 63, 68, 60, 104, 62, 73, 34, 72, 21, 41, 74, 94, 95, 66, 110, 49, 52, 63, 42, 62, 37, 36, 35, 40, 39, 21, 27, 38, 30, 22, 157, 154, 143, 119, 155, 148, 120, 109, 152, 146, 93, 78, 107, 72, 80, 54, 52, 83, 51, 62, 96, 91, 94, 81, 88, 107, 120, 118, 108, 101, 85, 82, 51, 66, 79, 22, 27, 21, 35, 24, 30, 50, 26, 16, 22, 121, 141, 140, 113, 127, 50, 45, 63, 38, 47, 80, 41, 87, 92, 42, 91, 53, 30, 40, 92, 102, 126, 108, 125, 124, 78, 57, 54, 52, 75, 49, 31, 66, 43, 42, 49, 44, 60, 56, 50, 104, 113, 129, 92, 93, 80, 83, 94, 102, 97, 144, 119, 117, 146, 118]);